
Gurobi 12.0.2 (win64) logging started Wed Dec 10 17:37:19 2025

Set parameter LogFile to value "C:\Ioana\_uni\honours\slp\algorithm\Main_files\results\arachidonic_acid_metabolism\Task_002_Sample005_irr_gurobi.log"
Gurobi Optimizer version 12.0.2 build v12.0.2rc0 (win64 - Windows 11.0 (26100.2))

CPU model: Intel(R) Core(TM) Ultra 5 125H, instruction set [SSE2|AVX|AVX2]
Thread count: 14 physical cores, 18 logical processors, using up to 18 threads

Non-default parameters:
TimeLimit  2200

Optimize a model with 47236 rows, 34502 columns and 146712 nonzeros
Model fingerprint: 0xa117f5ab
Variable types: 17253 continuous, 17249 integer (17249 binary)
Coefficient statistics:
  Matrix range     [1e-04, 8e+04]
  Objective range  [1e-04, 9e-01]
  Bounds range     [1e+00, 1e+03]
  RHS range        [1e+00, 1e+00]
Presolve removed 30836 rows and 21549 columns
Presolve time: 0.32s
Presolved: 16400 rows, 12953 columns, 54578 nonzeros
Variable types: 6410 continuous, 6543 integer (6543 binary)
Found heuristic solution: objective 17.9522835

Root relaxation: objective 9.576499e-03, 2831 iterations, 0.18 seconds (0.35 work units)

    Nodes    |    Current Node    |     Objective Bounds      |     Work
 Expl Unexpl |  Obj  Depth IntInf | Incumbent    BestBd   Gap | It/Node Time

     0     0    0.00958    0    5   17.95228    0.00958   100%     -    0s
H    0     0                       0.0907339    0.00958  89.4%     -    0s
H    0     0                       0.0429057    0.00958  77.7%     -    0s
     0     0    0.03324    0    3    0.04291    0.03324  22.5%     -    0s

Cutting planes:
  Cover: 6
  Flow cover: 1

Explored 1 nodes (3250 simplex iterations) in 0.88 seconds (1.03 work units)
Thread count was 18 (of 18 available processors)

Solution count 3: 0.0429057 0.0907339 17.9523 

Optimal solution found (tolerance 1.00e-04)
Best objective 4.290573009046e-02, best bound 4.290573009046e-02, gap 0.0000%
